!B3LYP 6-31G* RIJCOSX def2/J Freq
!pal4
*xyzfile 0 1 claisen_gs.xyz
